c File: data_files/evolved_graphs/g3708.col
c
c Auto generated graph
c
p edge 100 1110
e 1 2
e 1 15
e 1 17
e 1 25
e 1 35
e 1 45
e 1 49
e 1 60
e 1 62
e 1 69
e 1 71
e 1 72
e 1 77
e 1 88
e 2 20
e 2 30
e 2 32
e 2 42
e 2 46
e 2 69
e 2 79
e 2 85
e 3 11
e 3 15
e 3 17
e 3 18
e 3 21
e 3 24
e 3 28
e 3 31
e 3 33
e 3 36
e 3 48
e 3 49
e 3 71
e 3 73
e 3 76
e 4 5
e 4 6
e 4 8
e 4 10
e 4 23
e 4 32
e 4 33
e 4 40
e 4 57
e 4 69
e 4 70
e 4 73
e 4 81
e 5 15
e 5 18
e 5 29
e 5 32
e 5 36
e 5 39
e 5 40
e 5 47
e 5 50
e 5 61
e 5 72
e 5 73
e 6 9
e 6 11
e 6 18
e 6 19
e 6 24
e 6 31
e 6 37
e 6 39
e 6 40
e 6 48
e 6 56
e 6 66
e 6 80
e 7 9
e 7 11
e 7 24
e 7 25
e 7 32
e 7 44
e 7 59
e 8 12
e 8 15
e 8 16
e 8 21
e 8 22
e 8 27
e 8 29
e 8 46
e 8 58
e 8 65
e 8 68
e 8 77
e 8 88
e 9 13
e 9 17
e 9 21
e 9 28
e 9 40
e 9 42
e 9 47
e 9 53
e 9 64
e 9 90
e 9 93
e 10 12
e 10 13
e 10 18
e 10 26
e 10 51
e 10 54
e 10 59
e 10 62
e 10 72
e 10 74
e 10 80
e 10 91
e 10 97
e 11 25
e 11 30
e 11 50
e 11 54
e 11 56
e 11 59
e 11 68
e 11 69
e 11 73
e 11 77
e 11 85
e 11 88
e 11 90
e 11 93
e 11 94
e 12 23
e 12 26
e 12 27
e 12 35
e 12 56
e 12 64
e 12 67
e 12 69
e 12 70
e 12 71
e 12 72
e 13 14
e 13 22
e 13 29
e 13 30
e 13 35
e 13 36
e 13 52
e 13 57
e 13 65
e 13 75
e 13 78
e 13 83
e 14 30
e 14 40
e 14 45
e 14 47
e 14 48
e 14 52
e 14 53
e 14 54
e 14 60
e 14 72
e 14 86
e 15 16
e 15 20
e 15 23
e 15 33
e 15 54
e 15 60
e 15 63
e 15 69
e 15 73
e 15 74
e 15 77
e 15 83
e 15 85
e 15 90
e 16 21
e 16 22
e 16 25
e 16 26
e 16 31
e 16 41
e 16 44
e 16 48
e 16 56
e 16 59
e 16 100
e 17 18
e 17 22
e 17 42
e 17 43
e 17 52
e 17 55
e 17 62
e 17 77
e 17 80
e 17 82
e 17 98
e 17 99
e 18 21
e 18 30
e 18 43
e 18 47
e 18 59
e 18 68
e 18 71
e 18 82
e 18 87
e 18 88
e 18 89
e 19 23
e 19 25
e 19 27
e 19 33
e 19 38
e 19 41
e 19 43
e 19 47
e 19 57
e 19 58
e 19 66
e 19 74
e 20 23
e 20 33
e 20 34
e 20 36
e 20 38
e 20 41
e 20 43
e 20 45
e 20 46
e 20 62
e 20 63
e 20 83
e 20 91
e 21 27
e 21 56
e 21 64
e 21 85
e 21 95
e 22 36
e 22 47
e 22 66
e 22 72
e 22 77
e 22 81
e 22 85
e 22 90
e 22 95
e 23 25
e 23 26
e 23 38
e 23 40
e 23 41
e 23 42
e 23 48
e 23 58
e 23 59
e 23 60
e 23 68
e 23 71
e 23 75
e 23 77
e 23 78
e 23 84
e 23 86
e 23 87
e 23 94
e 23 95
e 23 97
e 23 98
e 23 99
e 23 100
e 24 27
e 24 36
e 24 54
e 24 55
e 24 56
e 24 61
e 24 68
e 24 78
e 24 80
e 24 83
e 24 85
e 24 86
e 24 88
e 24 89
e 24 90
e 24 95
e 24 97
e 24 99
e 25 33
e 25 38
e 25 46
e 25 50
e 25 51
e 25 60
e 25 70
e 25 73
e 25 81
e 25 84
e 25 86
e 25 89
e 25 94
e 26 31
e 26 32
e 26 34
e 26 43
e 26 45
e 26 46
e 26 58
e 26 66
e 26 79
e 26 81
e 26 82
e 26 85
e 26 86
e 26 88
e 26 89
e 26 93
e 26 96
e 26 97
e 26 98
e 27 28
e 27 31
e 27 32
e 27 38
e 27 41
e 27 43
e 27 45
e 27 53
e 27 56
e 27 59
e 27 66
e 27 72
e 27 78
e 27 92
e 27 96
e 27 97
e 27 100
e 28 37
e 28 39
e 28 44
e 28 54
e 28 59
e 28 61
e 28 64
e 28 74
e 28 75
e 28 84
e 28 89
e 28 91
e 28 95
e 28 96
e 28 97
e 28 100
e 29 33
e 29 43
e 29 44
e 29 47
e 29 59
e 29 64
e 29 67
e 29 70
e 29 74
e 29 79
e 29 80
e 29 83
e 29 84
e 29 87
e 29 88
e 29 90
e 29 94
e 29 95
e 29 96
e 29 97
e 29 98
e 30 35
e 30 37
e 30 39
e 30 54
e 30 56
e 30 61
e 30 62
e 30 64
e 30 72
e 30 76
e 30 77
e 30 79
e 30 82
e 30 83
e 30 85
e 30 87
e 30 88
e 30 92
e 30 96
e 30 98
e 30 99
e 31 39
e 31 40
e 31 51
e 31 54
e 31 72
e 31 73
e 31 78
e 31 82
e 31 83
e 31 86
e 31 87
e 31 89
e 31 90
e 31 94
e 31 95
e 31 97
e 32 36
e 32 43
e 32 46
e 32 49
e 32 59
e 32 62
e 32 72
e 32 81
e 32 85
e 32 91
e 32 93
e 32 100
e 33 39
e 33 42
e 33 44
e 33 46
e 33 52
e 33 64
e 33 67
e 33 70
e 33 80
e 33 81
e 33 82
e 33 89
e 33 97
e 33 98
e 33 99
e 34 35
e 34 37
e 34 41
e 34 53
e 34 60
e 34 65
e 34 68
e 34 69
e 34 70
e 34 72
e 34 75
e 34 76
e 34 77
e 34 81
e 34 83
e 34 85
e 34 89
e 34 91
e 34 95
e 34 96
e 34 97
e 34 100
e 35 51
e 35 55
e 35 58
e 35 63
e 35 64
e 35 65
e 35 67
e 35 69
e 35 70
e 35 71
e 35 74
e 35 75
e 35 77
e 35 82
e 35 87
e 35 95
e 35 99
e 35 100
e 36 39
e 36 47
e 36 52
e 36 55
e 36 60
e 36 63
e 36 69
e 36 72
e 36 76
e 36 77
e 36 78
e 36 79
e 36 83
e 36 84
e 36 93
e 36 94
e 36 100
e 37 41
e 37 47
e 37 49
e 37 56
e 37 59
e 37 61
e 37 67
e 37 68
e 37 69
e 37 71
e 37 72
e 37 76
e 37 78
e 37 83
e 37 84
e 37 90
e 37 91
e 37 92
e 37 97
e 37 99
e 38 44
e 38 47
e 38 51
e 38 54
e 38 57
e 38 62
e 38 63
e 38 66
e 38 67
e 38 71
e 38 75
e 38 76
e 38 77
e 38 83
e 38 90
e 38 95
e 38 97
e 38 98
e 39 47
e 39 49
e 39 50
e 39 53
e 39 57
e 39 61
e 39 67
e 39 70
e 39 72
e 39 76
e 39 85
e 39 94
e 39 95
e 39 96
e 39 97
e 39 98
e 39 99
e 40 41
e 40 43
e 40 47
e 40 51
e 40 67
e 40 69
e 40 70
e 40 73
e 40 75
e 40 77
e 40 79
e 40 82
e 40 88
e 40 89
e 40 93
e 40 94
e 40 95
e 40 96
e 40 97
e 40 98
e 40 99
e 41 42
e 41 43
e 41 44
e 41 45
e 41 53
e 41 60
e 41 63
e 41 67
e 41 68
e 41 72
e 41 73
e 41 76
e 41 77
e 41 78
e 41 79
e 41 80
e 41 81
e 41 83
e 41 93
e 41 95
e 41 98
e 42 45
e 42 49
e 42 52
e 42 53
e 42 58
e 42 64
e 42 67
e 42 68
e 42 69
e 42 73
e 42 75
e 42 83
e 42 98
e 42 99
e 43 45
e 43 53
e 43 61
e 43 67
e 43 68
e 43 71
e 43 72
e 43 73
e 43 76
e 43 79
e 43 81
e 43 88
e 43 89
e 43 93
e 43 95
e 43 99
e 44 45
e 44 49
e 44 50
e 44 56
e 44 61
e 44 69
e 44 70
e 44 71
e 44 72
e 44 76
e 44 77
e 44 88
e 44 93
e 44 96
e 44 97
e 44 98
e 44 100
e 45 51
e 45 60
e 45 61
e 45 67
e 45 69
e 45 70
e 45 72
e 45 75
e 45 78
e 45 88
e 45 93
e 45 99
e 46 48
e 46 56
e 46 58
e 46 67
e 46 68
e 46 70
e 46 77
e 46 83
e 46 85
e 46 86
e 46 87
e 46 94
e 46 95
e 46 97
e 47 54
e 47 55
e 47 57
e 47 66
e 47 68
e 47 70
e 47 71
e 47 72
e 47 73
e 47 74
e 47 75
e 47 76
e 47 78
e 47 80
e 47 82
e 47 84
e 47 90
e 47 95
e 47 96
e 47 97
e 47 98
e 47 99
e 48 49
e 48 51
e 48 58
e 48 60
e 48 67
e 48 68
e 48 69
e 48 70
e 48 71
e 48 75
e 48 76
e 48 87
e 48 89
e 48 93
e 48 95
e 48 96
e 48 98
e 48 99
e 48 100
e 49 50
e 49 57
e 49 61
e 49 70
e 49 72
e 49 73
e 49 74
e 49 75
e 49 77
e 49 88
e 49 90
e 49 95
e 49 96
e 49 97
e 49 98
e 49 99
e 50 53
e 50 54
e 50 64
e 50 67
e 50 68
e 50 71
e 50 73
e 50 75
e 50 76
e 50 77
e 50 85
e 50 95
e 50 96
e 50 97
e 50 99
e 51 52
e 51 59
e 51 60
e 51 62
e 51 63
e 51 68
e 51 69
e 51 72
e 51 75
e 51 76
e 51 77
e 51 78
e 51 79
e 51 80
e 51 81
e 51 83
e 51 87
e 51 95
e 51 96
e 51 97
e 51 98
e 51 99
e 51 100
e 52 55
e 52 63
e 52 64
e 52 67
e 52 71
e 52 74
e 52 76
e 52 77
e 52 85
e 52 88
e 52 90
e 52 95
e 52 96
e 52 97
e 52 98
e 52 100
e 53 56
e 53 66
e 53 69
e 53 75
e 53 76
e 53 77
e 53 85
e 53 89
e 53 90
e 53 91
e 53 95
e 53 98
e 53 99
e 54 55
e 54 58
e 54 60
e 54 61
e 54 67
e 54 68
e 54 71
e 54 73
e 54 74
e 54 76
e 54 78
e 54 82
e 54 86
e 54 92
e 54 95
e 54 96
e 54 98
e 54 99
e 54 100
e 55 60
e 55 67
e 55 69
e 55 71
e 55 72
e 55 77
e 55 78
e 55 80
e 55 82
e 55 95
e 55 96
e 55 99
e 56 57
e 56 63
e 56 65
e 56 68
e 56 69
e 56 71
e 56 72
e 56 75
e 56 76
e 56 77
e 56 80
e 56 86
e 56 90
e 56 97
e 56 99
e 57 58
e 57 61
e 57 62
e 57 64
e 57 67
e 57 69
e 57 70
e 57 78
e 57 81
e 57 92
e 57 96
e 57 98
e 58 61
e 58 62
e 58 66
e 58 73
e 58 75
e 58 76
e 58 77
e 58 78
e 58 83
e 58 87
e 58 90
e 58 94
e 58 96
e 58 99
e 58 100
e 59 67
e 59 68
e 59 69
e 59 70
e 59 71
e 59 74
e 59 76
e 59 77
e 59 79
e 59 84
e 59 94
e 59 98
e 59 99
e 60 63
e 60 67
e 60 68
e 60 70
e 60 71
e 60 72
e 60 74
e 60 85
e 60 86
e 60 88
e 60 96
e 60 97
e 60 98
e 60 99
e 60 100
e 61 62
e 61 63
e 61 67
e 61 68
e 61 69
e 61 71
e 61 75
e 61 76
e 61 77
e 61 80
e 61 85
e 61 86
e 61 93
e 61 94
e 61 97
e 61 99
e 61 100
e 62 73
e 62 74
e 62 77
e 62 94
e 62 95
e 62 99
e 63 65
e 63 69
e 63 70
e 63 71
e 63 73
e 63 74
e 63 75
e 63 82
e 63 90
e 63 92
e 63 94
e 63 95
e 63 100
e 64 68
e 64 71
e 64 72
e 64 76
e 64 77
e 64 78
e 64 80
e 64 85
e 64 87
e 64 90
e 64 91
e 64 95
e 64 98
e 64 99
e 65 69
e 65 70
e 65 72
e 65 73
e 65 74
e 65 76
e 65 77
e 65 79
e 65 80
e 65 83
e 65 91
e 65 95
e 65 96
e 65 100
e 66 68
e 66 71
e 66 72
e 66 73
e 66 74
e 66 77
e 66 80
e 66 82
e 66 88
e 66 93
e 66 95
e 66 96
e 66 100
e 67 76
e 67 77
e 67 81
e 67 88
e 67 98
e 67 99
e 67 100
e 68 73
e 68 74
e 68 77
e 68 78
e 68 80
e 68 82
e 68 94
e 68 97
e 68 98
e 69 73
e 69 84
e 69 93
e 69 95
e 69 96
e 69 98
e 69 99
e 69 100
e 70 76
e 70 81
e 70 84
e 70 89
e 70 95
e 70 96
e 70 97
e 70 99
e 71 74
e 71 76
e 71 78
e 71 79
e 71 82
e 71 83
e 71 86
e 71 90
e 71 92
e 71 96
e 71 99
e 72 79
e 72 87
e 72 97
e 72 99
e 73 74
e 73 91
e 73 95
e 73 98
e 74 79
e 74 81
e 74 89
e 74 95
e 74 97
e 75 78
e 75 87
e 75 91
e 75 93
e 75 95
e 75 96
e 75 97
e 75 98
e 75 99
e 76 78
e 76 81
e 76 83
e 76 87
e 76 91
e 76 95
e 76 96
e 76 98
e 76 99
e 76 100
e 77 80
e 77 89
e 77 92
e 77 93
e 77 95
e 77 97
e 77 98
e 77 99
e 77 100
e 78 80
e 78 82
e 78 86
e 78 87
e 78 90
e 78 95
e 78 96
e 78 97
e 78 99
e 79 80
e 79 91
e 79 98
e 79 100
e 80 87
e 80 90
e 80 96
e 81 82
e 81 83
e 81 98
e 81 100
e 82 88
e 82 94
e 82 95
e 82 96
e 83 92
e 84 87
e 84 91
e 84 93
e 84 95
e 84 96
e 84 99
e 85 92
e 86 88
e 86 95
e 86 96
e 87 90
e 87 95
e 87 98
e 88 96
e 88 100
e 90 93
e 90 95
e 91 93
e 91 98
e 92 100
e 93 95
e 94 99
e 95 97
e 96 99
e 96 100
